Gurobi 12.0.3:   lim:time = 14400

  mip:bestbound = 1

Set parameter LogToConsole to value 1

  tech:outlev = 1

Set parameter Cuts to value 3

  cut:cuts = 3

Set parameter Presolve to value 2

  pre:solve = 2

Set parameter MIPFocus to value 2

  mip:focus = 2

Set parameter Symmetry to value 2

  mip:symmetry = 2

Set parameter InfUnbdInfo to value 1

Gurobi Optimizer version 12.0.3 build v12.0.3rc0 (win64 - Windows 11+.0 (26200.2))



CPU model: 13th Gen Intel(R) Core(TM) i7-13700K, instruction set [SSE2|AVX|AVX2]

Thread count: 16 physical cores, 24 logical processors, using up to 24 threads



Non-default parameters:

TimeLimit  14400

MIPFocus  2

Symmetry  2

Cuts  3

InfUnbdInfo  1

Presolve  2



Optimize a model with 347 rows, 611 columns and 3426 nonzeros

Model fingerprint: 0x1c01dd34

Model has 2 quadratic objective terms

Model has 5 quadratic constraints

Variable types: 34 continuous, 577 integer (0 binary)

Coefficient statistics:

  Matrix range     [1e+00, 1e+05]

  QMatrix range    [1e+00, 1e+00]

  QLMatrix range   [1e+00, 1e+01]

  Objective range  [3e+00, 1e+02]

  QObjective range [2e+00, 2e+00]

  Bounds range     [1e+00, 1e+02]

  RHS range        [1e+00, 1e+05]

  QRHS range       [1e+02, 1e+02]

Presolve removed 39 rows and 60 columns

Presolve time: 0.05s

Presolved: 678 rows, 913 columns, 5235 nonzeros

Variable types: 89 continuous, 824 integer (673 binary)

Found heuristic solution: objective 524.7900000

Root relaxation presolve removed 16 rows and 2 columns

Root relaxation presolved: 512 rows, 763 columns, 7281 nonzeros





Root relaxation: objective 8.095254e+01, 89 iterations, 0.01 seconds (0.01 work units)



    Nodes    |    Current Node    |     Objective Bounds      |     Work

 Expl Unexpl |  Obj  Depth IntInf | Incumbent    BestBd   Gap | It/Node Time



     0     0   80.95254    0   34  524.79000   80.95254  84.6%     -    0s

     0     0  133.12556    0   58  524.79000  133.12556  74.6%     -    0s

H    0     0                     505.3500000  133.12556  73.7%     -    0s

H    0     0                     370.2400000  133.12556  64.0%     -    0s

     0     0  134.11972    0   42  370.24000  134.11972  63.8%     -    0s

     0     0  134.11972    0   41  370.24000  134.11972  63.8%     -    0s

     0     0  134.28500    0   44  370.24000  134.28500  63.7%     -    0s

     0     0  137.97000    0   21  370.24000  137.97000  62.7%     -    0s

H    0     0                     348.1300000  137.97000  60.4%     -    0s

     0     0  137.97000    0   21  348.13000  137.97000  60.4%     -    0s

     0     0  137.97034    0   52  348.13000  137.97034  60.4%     -    0s

H    0     0                     331.7000000  143.21360  56.8%     -    0s

H    0     0                     325.3800000  143.21360  56.0%     -    0s

     0     0  148.62665    0   66  325.38000  148.62665  54.3%     -    0s

     0     0  148.70899    0   65  325.38000  148.70899  54.3%     -    0s

     0     2  148.70899    0   65  325.38000  148.70899  54.3%     -    0s

H  445   328                     306.3900000  174.22544  43.1%  16.4    0s

H 1616   822                     300.5000000  180.36500  40.0%  14.0    1s

H 2385  1106                     297.3500000  183.93500  38.1%  14.5    1s

H 2386  1032                     283.7000000  183.93500  35.2%  14.5    1s

H 5055  1514                     280.1900000  227.95147  18.6%  15.5    2s

H 5086  1458                     278.8900000  246.07248  11.8%  15.9    3s

H 5086  1385                     278.7700000  246.07248  11.7%  15.9    3s



Cutting planes:

  Learned: 8

  Gomory: 8

  Lift-and-project: 3

  Cover: 8

  Implied bound: 31

  Projected implied bound: 1

  Clique: 21

  MIR: 20

  Mixing: 9

  StrongCG: 6

  Flow cover: 163

  GUB cover: 2

  Inf proof: 5

  Zero half: 50

  RLT: 2

  Relax-and-lift: 9



Explored 13573 nodes (196705 simplex iterations) in 4.88 seconds (5.03 work units)

Thread count was 24 (of 24 available processors)



Solution count 10: 278.77 278.89 280.19 ... 348.13



Optimal solution found (tolerance 1.00e-04)

Best objective 2.787700000000e+02, best bound 2.787700000000e+02, gap 0.0000%



AMPL MP initial flat model has 611 variables (0 integer, 577 binary);

Objectives: 1 quadratic; 

Constraints:  347 linear; 5 quadratic;



AMPL MP final model has 611 variables (0 integer, 577 binary);

Objectives: 1 quadratic; 

Constraints:  347 linear; 5 quadratic;





-----RESULTS INFO-----
running_time:  4.968
TC.best_bound:  278.77
TC:  278.77
MIP Gap (%):  0
=== Vehicle Routes ===
Vehicle 1: 0 → 1
Vehicle 1: 1 → 3
Vehicle 1: 2 → 17
Vehicle 1: 3 → 13
Vehicle 1: 13 → 15
Vehicle 1: 15 → 2
Vehicle 2: 0 → 14
Vehicle 2: 14 → 17
Vehicle 3: 0 → 17

=== Full Vehicle Routes ===
Vehicle 1: 0 → 1 → 3 → 13 → 15 → 2 → 0 (89<100)
Vehicle 2: 0 → 14 → 0 (12<100)
Vehicle 3: 0 → 0 (0<100)
Arc used by MRT line: y variables:
Customer assigment to PL: u variables:
4 13
5 15
6 14
7 13
8 15
9 15
Node is served by regular vehicle: g variables:
1
2
3
13
14
15
Customer assigment to Home delivery: gm variables:
1
2
3
Node total demands: ntd variables:
1 13 1
2 13 1
3 12 1
7 0 0
8 0 0
9 0 0
16 0 0
10 0 0
11 0 0
12 0 0
13 33 1
14 12 1
15 18 1
Customer's demand delivered to PL: l variables:
4
5
6
7
8
9
Lockers load <= capacity:
0 <= 90
0 <= 83
0 <= 100
0 <= 70
33 <= 87
12 <= 73
18 <= 71
